datasets/2-dimensional/CL_05_25_04.vbp
2
1000 1000 
25
89 29 30
80 34 72
47 36 4
56 75 88
49 69 54
67 35 64
28 88 90
97 71 26
92 76 94
79 68 28
74 40 72
46 83 49
59 90 54
56 51 19
79 58 28
44 78 61
42 28 84
41 75 23
33 34 67
33 48 53
84 58 54
26 31 16
28 34 9
55 83 54
99 70 77
