2-dimensional/CL_05_25_04.txt
1000 1000 
0 30 89 29 
1 72 80 34 
2 4 47 36 
3 88 56 75 
4 54 49 69 
5 64 67 35 
6 90 28 88 
7 26 97 71 
8 94 92 76 
9 28 79 68 
10 72 74 40 
11 49 46 83 
12 54 59 90 
13 19 56 51 
14 28 79 58 
15 61 44 78 
16 84 42 28 
17 23 41 75 
18 67 33 34 
19 53 33 48 
20 54 84 58 
21 16 26 31 
22 9 28 34 
23 54 55 83 
24 77 99 70 
